instances/projet_5_8_3.sol

<<< setup


<<< generate

Tried aggregator 1 time.
MIP Presolve eliminated 477 rows and 401 columns.
Reduced MIP has 287 rows, 242 columns, and 1145 nonzeros.
Reduced MIP has 210 binaries, 0 generals, 0 SOSs, and 0 indicators.
Presolve time = 0,00 sec. (1,93 ticks)
Found incumbent of value 1,000000 after 0,00 sec. (2,95 ticks)
Probing time = 0,00 sec. (1,79 ticks)
Tried aggregator 1 time.
Reduced MIP has 287 rows, 242 columns, and 1145 nonzeros.
Reduced MIP has 210 binaries, 0 generals, 0 SOSs, and 0 indicators.
Presolve time = 0,00 sec. (0,55 ticks)
Probing time = 0,00 sec. (1,77 ticks)
Clique table members: 838.
MIP emphasis: balance optimality and feasibility.
MIP search method: dynamic search.
Parallel mode: deterministic, using up to 4 threads.
Root relaxation solution time = 0,00 sec. (1,28 ticks)

        Nodes                                         Cuts/
   Node  Left     Objective  IInf  Best Integer    Best Bound    ItCnt     Gap

*     0+    0                            1,0000       15,0000      117     --- 
      0     0       15,0000    90        1,0000       15,0000      117     --- 
*     0+    0                           15,0000       15,0000      117    0,00%
      0     0        cutoff             15,0000       15,0000      117    0,00%
Elapsed time = 0,05 sec. (41,66 ticks, tree = 0,00 MB, solutions = 2)

Root node processing (before b&c):
  Real time             =    0,05 sec. (41,69 ticks)
Parallel b&c, 4 threads:
  Real time             =    0,00 sec. (0,00 ticks)
  Sync time (average)   =    0,00 sec.
  Wait time (average)   =    0,00 sec.
                          ------------
Total (root+branch&cut) =    0,05 sec. (41,69 ticks)

<<< solve


OBJECTIVE: 15

x[1][1] = 0 x[1][2] = 0 x[1][3] = 0 x[1][4] = 0 x[1][5] = 0 x[1][6] = 1 x[1][7] = 1 x[1][8] = 1 
x[2][1] = 0 x[2][2] = 0 x[2][3] = 0 x[2][4] = 0 x[2][5] = 0 x[2][6] = 1 x[2][7] = 1 x[2][8] = 1 
x[3][1] = 0 x[3][2] = 0 x[3][3] = 0 x[3][4] = 0 x[3][5] = 0 x[3][6] = 1 x[3][7] = 1 x[3][8] = 1 
x[4][1] = 0 x[4][2] = 0 x[4][3] = 0 x[4][4] = 0 x[4][5] = 0 x[4][6] = 1 x[4][7] = 1 x[4][8] = 1 
x[5][1] = 0 x[5][2] = 0 x[5][3] = 0 x[5][4] = 0 x[5][5] = 0 x[5][6] = 1 x[5][7] = 1 x[5][8] = 1 


<<< post process


<<< done

